problems/VanDerWaerdenNumbers/VanDerWaerden-models/noch/O2/lingeling/model_4-k3l4n67-solution000001.solution
language Essence 1.3

letting p be
        partition({1, 3, 5, 14, 16, 20, 21, 23, 25, 28, 31, 37, 40, 44, 47, 49, 50, 56, 59, 63, 65, 66, 67},
                  {2, 4, 8, 11, 12, 15, 18, 22, 24, 35, 36, 38, 39, 41, 45, 52, 53, 54, 58, 60},
                  {6, 7, 9, 10, 13, 17, 19, 26, 27, 29, 30, 32, 33, 34, 42, 43, 46, 48, 51, 55, 57, 61, 62, 64})
